(set-logic QF_LIA)
(declare-fun x0 () Int)
(declare-fun x1 () Int)
(declare-fun x2 () Int)
(declare-fun x3 () Int)
(declare-fun x4 () Int)
(declare-fun x5 () Int)
(declare-fun x6 () Int)
(declare-fun x7 () Int)
(declare-fun x8 () Int)
(declare-fun x9 () Int)
(declare-fun A0 () Bool)
(declare-fun A1 () Bool)
(declare-fun A2 () Bool)
(declare-fun A3 () Bool)
(declare-fun A4 () Bool)
(declare-fun A5 () Bool)
(declare-fun A6 () Bool)
(declare-fun A7 () Bool)
(declare-fun A8 () Bool)
(declare-fun A9 () Bool)
(assert (let ((.def_0 (not A8))) (let ((.def_1 (* 1 x9))) (let ((.def_2 (* (- 1) x2))) (let ((.def_3 (+ .def_2 .def_1))) (let ((.def_4 (< .def_3 1))) (let ((.def_5 (and .def_4 .def_0))) (let ((.def_6 (not .def_5))) (let ((.def_7 (* (- 1) x3))) (let ((.def_8 (< .def_7 (- 1)))) (let ((.def_9 (< .def_7 1))) (let ((.def_10 (not .def_9))) (let ((.def_11 (or .def_10 .def_8))) (let ((.def_12 (or .def_11 .def_6))) (let ((.def_13 (not .def_12))) (let ((.def_14 (* (- 1) x0))) (let ((.def_15 (* 1 x3))) (let ((.def_16 (+ .def_15 .def_14))) (let ((.def_17 (< .def_16 1))) (let ((.def_18 (not .def_17))) (let ((.def_19 (* (- 1) x7))) (let ((.def_20 (< .def_19 (- 1)))) (let ((.def_21 (not .def_20))) (let ((.def_22 (or .def_21 .def_18))) (let ((.def_23 (* (- 1) x1))) (let ((.def_24 (* (- 1) x9))) (let ((.def_25 (+ .def_24 .def_23))) (let ((.def_26 (< .def_25 (- 1)))) (let ((.def_27 (or A2 .def_26))) (let ((.def_28 (or .def_27 .def_22))) (let ((.def_29 (not .def_28))) (let ((.def_30 (and .def_29 .def_13))) (let ((.def_31 (= A1 A5))) (let ((.def_32 (not .def_31))) (let ((.def_33 (* 1 x2))) (let ((.def_34 (* (- 1) x6))) (let ((.def_35 (+ .def_34 .def_33))) (let ((.def_36 (< .def_35 1))) (let ((.def_37 (not A3))) (let ((.def_38 (= .def_37 .def_36))) (let ((.def_39 (not .def_38))) (let ((.def_40 (or .def_39 .def_32))) (let ((.def_41 (not .def_40))) (let ((.def_42 (not A5))) (let ((.def_43 (* (- 1) x8))) (let ((.def_44 (< .def_43 (- 1)))) (let ((.def_45 (or .def_44 .def_42))) (let ((.def_46 (not .def_45))) (let ((.def_47 (< .def_24 (- 1)))) (let ((.def_48 (not .def_47))) (let ((.def_49 (* 1 x5))) (let ((.def_50 (< .def_49 (- 1)))) (let ((.def_51 (or .def_50 .def_48))) (let ((.def_52 (and .def_51 .def_46))) (let ((.def_53 (= .def_52 .def_41))) (let ((.def_54 (and .def_53 .def_30))) (let ((.def_55 (* 1 x8))) (let ((.def_56 (+ .def_55 .def_34))) (let ((.def_57 (< .def_56 (- 1)))) (let ((.def_58 (and .def_57 .def_37))) (let ((.def_59 (< .def_55 1))) (let ((.def_60 (not A0))) (let ((.def_61 (or .def_60 .def_59))) (let ((.def_62 (and .def_61 .def_58))) (let ((.def_63 (not A2))) (let ((.def_64 (or .def_42 .def_63))) (let ((.def_65 (not .def_64))) (let ((.def_66 (+ .def_14 .def_49))) (let ((.def_67 (< .def_66 (- 1)))) (let ((.def_68 (not .def_67))) (let ((.def_69 (* 1 x1))) (let ((.def_70 (< .def_69 (- 1)))) (let ((.def_71 (not .def_70))) (let ((.def_72 (or .def_71 .def_68))) (let ((.def_73 (not .def_72))) (let ((.def_74 (or .def_73 .def_65))) (let ((.def_75 (not .def_74))) (let ((.def_76 (or .def_75 .def_62))) (let ((.def_77 (not .def_76))) (let ((.def_78 (* (- 1) x4))) (let ((.def_79 (< .def_78 (- 1)))) (let ((.def_80 (not .def_79))) (let ((.def_81 (= .def_70 .def_80))) (let ((.def_82 (not .def_81))) (let ((.def_83 (= A9 .def_60))) (let ((.def_84 (and .def_83 .def_82))) (let ((.def_85 (* 1 x4))) (let ((.def_86 (< .def_85 1))) (let ((.def_87 (+ .def_34 .def_15))) (let ((.def_88 (< .def_87 1))) (let ((.def_89 (and .def_88 .def_86))) (let ((.def_90 (not .def_89))) (let ((.def_91 (< .def_34 (- 1)))) (let ((.def_92 (not .def_91))) (let ((.def_93 (or .def_92 A9))) (let ((.def_94 (not .def_93))) (let ((.def_95 (or .def_94 .def_90))) (let ((.def_96 (not .def_95))) (let ((.def_97 (and .def_96 .def_84))) (let ((.def_98 (not .def_97))) (let ((.def_99 (and .def_98 .def_77))) (let ((.def_100 (or .def_99 .def_54))) (let ((.def_101 (= .def_37 .def_0))) (let ((.def_102 (not .def_101))) (let ((.def_103 (and A3 A8))) (let ((.def_104 (or .def_103 .def_102))) (let ((.def_105 (< .def_34 1))) (let ((.def_106 (not .def_105))) (let ((.def_107 (+ .def_34 .def_7))) (let ((.def_108 (< .def_107 1))) (let ((.def_109 (or .def_108 .def_106))) (let ((.def_110 (< .def_49 1))) (let ((.def_111 (not .def_110))) (let ((.def_112 (+ .def_2 .def_49))) (let ((.def_113 (< .def_112 1))) (let ((.def_114 (not .def_113))) (let ((.def_115 (and .def_114 .def_111))) (let ((.def_116 (not .def_115))) (let ((.def_117 (= .def_116 .def_109))) (let ((.def_118 (not .def_117))) (let ((.def_119 (and .def_118 .def_104))) (let ((.def_120 (< .def_33 1))) (let ((.def_121 (not A7))) (let ((.def_122 (or .def_121 .def_120))) (let ((.def_123 (< .def_15 1))) (let ((.def_124 (not .def_123))) (let ((.def_125 (or .def_124 .def_37))) (let ((.def_126 (not .def_125))) (let ((.def_127 (or .def_126 .def_122))) (let ((.def_128 (or .def_9 A7))) (let ((.def_129 (not .def_128))) (let ((.def_130 (and .def_9 .def_42))) (let ((.def_131 (not .def_130))) (let ((.def_132 (or .def_131 .def_129))) (let ((.def_133 (not .def_132))) (let ((.def_134 (and .def_133 .def_127))) (let ((.def_135 (not .def_134))) (let ((.def_136 (or .def_135 .def_119))) (let ((.def_137 (not .def_136))) (let ((.def_138 (or A6 A0))) (let ((.def_139 (and .def_63 .def_106))) (let ((.def_140 (or .def_139 .def_138))) (let ((.def_141 (not .def_140))) (let ((.def_142 (+ .def_55 .def_49))) (let ((.def_143 (< .def_142 (- 1)))) (let ((.def_144 (not .def_143))) (let ((.def_145 (and A4 .def_144))) (let ((.def_146 (not .def_145))) (let ((.def_147 (+ .def_34 .def_1))) (let ((.def_148 (< .def_147 (- 1)))) (let ((.def_149 (not .def_148))) (let ((.def_150 (or A9 .def_149))) (let ((.def_151 (and .def_150 .def_146))) (let ((.def_152 (or .def_151 .def_141))) (let ((.def_153 (and .def_121 .def_9))) (let ((.def_154 (+ .def_49 .def_14))) (let ((.def_155 (< .def_154 1))) (let ((.def_156 (or A1 .def_155))) (let ((.def_157 (or .def_156 .def_153))) (let ((.def_158 (* (- 1) x5))) (let ((.def_159 (+ .def_158 .def_1))) (let ((.def_160 (< .def_159 (- 1)))) (let ((.def_161 (not .def_160))) (let ((.def_162 (< .def_24 1))) (let ((.def_163 (not .def_162))) (let ((.def_164 (and .def_163 .def_161))) (let ((.def_165 (+ .def_1 .def_7))) (let ((.def_166 (< .def_165 1))) (let ((.def_167 (= .def_166 A0))) (let ((.def_168 (not .def_167))) (let ((.def_169 (or .def_168 .def_164))) (let ((.def_170 (not .def_169))) (let ((.def_171 (or .def_170 .def_157))) (let ((.def_172 (not .def_171))) (let ((.def_173 (and .def_172 .def_152))) (let ((.def_174 (or .def_173 .def_137))) (let ((.def_175 (or .def_174 .def_100))) (let ((.def_176 (not .def_175))) (let ((.def_177 (< .def_78 1))) (let ((.def_178 (not .def_177))) (let ((.def_179 (and .def_178 .def_37))) (let ((.def_180 (or A6 .def_123))) (let ((.def_181 (or .def_180 .def_179))) (let ((.def_182 (* 1 x6))) (let ((.def_183 (< .def_182 1))) (let ((.def_184 (not .def_183))) (let ((.def_185 (+ .def_23 .def_85))) (let ((.def_186 (< .def_185 (- 1)))) (let ((.def_187 (not .def_186))) (let ((.def_188 (and .def_187 .def_184))) (let ((.def_189 (+ .def_69 .def_182))) (let ((.def_190 (< .def_189 1))) (let ((.def_191 (not .def_190))) (let ((.def_192 (and A9 .def_191))) (let ((.def_193 (not .def_192))) (let ((.def_194 (or .def_193 .def_188))) (let ((.def_195 (not .def_194))) (let ((.def_196 (or .def_195 .def_181))) (let ((.def_197 (not .def_196))) (let ((.def_198 (not A9))) (let ((.def_199 (* 1 x0))) (let ((.def_200 (< .def_199 (- 1)))) (let ((.def_201 (= .def_200 .def_198))) (let ((.def_202 (+ .def_182 .def_14))) (let ((.def_203 (< .def_202 1))) (let ((.def_204 (= A6 .def_203))) (let ((.def_205 (and .def_204 .def_201))) (let ((.def_206 (< .def_158 (- 1)))) (let ((.def_207 (not A1))) (let ((.def_208 (or .def_207 .def_206))) (let ((.def_209 (+ .def_158 .def_24))) (let ((.def_210 (< .def_209 1))) (let ((.def_211 (not .def_210))) (let ((.def_212 (+ .def_85 .def_7))) (let ((.def_213 (< .def_212 (- 1)))) (let ((.def_214 (not .def_213))) (let ((.def_215 (or .def_214 .def_211))) (let ((.def_216 (or .def_215 .def_208))) (let ((.def_217 (or .def_216 .def_205))) (let ((.def_218 (= .def_217 .def_197))) (let ((.def_219 (not A4))) (let ((.def_220 (< .def_1 1))) (let ((.def_221 (and .def_220 .def_219))) (let ((.def_222 (not .def_221))) (let ((.def_223 (or A3 .def_37))) (let ((.def_224 (not .def_223))) (let ((.def_225 (or .def_224 .def_222))) (let ((.def_226 (+ .def_33 .def_78))) (let ((.def_227 (< .def_226 1))) (let ((.def_228 (not .def_227))) (let ((.def_229 (or .def_228 A6))) (let ((.def_230 (and A8 A4))) (let ((.def_231 (not .def_230))) (let ((.def_232 (or .def_231 .def_229))) (let ((.def_233 (not .def_232))) (let ((.def_234 (or .def_233 .def_225))) (let ((.def_235 (not .def_234))) (let ((.def_236 (= A7 A1))) (let ((.def_237 (not .def_236))) (let ((.def_238 (and A7 A5))) (let ((.def_239 (not .def_238))) (let ((.def_240 (and .def_239 .def_237))) (let ((.def_241 (+ .def_49 .def_19))) (let ((.def_242 (< .def_241 1))) (let ((.def_243 (and .def_242 A2))) (let ((.def_244 (not .def_243))) (let ((.def_245 (< .def_55 (- 1)))) (let ((.def_246 (not .def_245))) (let ((.def_247 (< .def_199 1))) (let ((.def_248 (and .def_247 .def_246))) (let ((.def_249 (not .def_248))) (let ((.def_250 (and .def_249 .def_244))) (let ((.def_251 (and .def_250 .def_240))) (let ((.def_252 (not .def_251))) (let ((.def_253 (and .def_252 .def_235))) (let ((.def_254 (not .def_253))) (let ((.def_255 (and .def_254 .def_218))) (let ((.def_256 (and .def_42 .def_37))) (let ((.def_257 (not .def_256))) (let ((.def_258 (not .def_50))) (let ((.def_259 (and .def_258 .def_60))) (let ((.def_260 (and .def_259 .def_257))) (let ((.def_261 (or .def_42 .def_219))) (let ((.def_262 (not .def_261))) (let ((.def_263 (+ .def_2 .def_14))) (let ((.def_264 (< .def_263 1))) (let ((.def_265 (= A5 .def_264))) (let ((.def_266 (not .def_265))) (let ((.def_267 (= .def_266 .def_262))) (let ((.def_268 (or .def_267 .def_260))) (let ((.def_269 (not .def_268))) (let ((.def_270 (not .def_44))) (let ((.def_271 (or .def_270 A2))) (let ((.def_272 (+ .def_7 .def_24))) (let ((.def_273 (< .def_272 1))) (let ((.def_274 (or A4 .def_273))) (let ((.def_275 (not .def_274))) (let ((.def_276 (or .def_275 .def_271))) (let ((.def_277 (not .def_276))) (let ((.def_278 (and A5 .def_207))) (let ((.def_279 (* 1 x7))) (let ((.def_280 (< .def_279 1))) (let ((.def_281 (= .def_219 .def_280))) (let ((.def_282 (or .def_281 .def_278))) (let ((.def_283 (= .def_282 .def_277))) (let ((.def_284 (not .def_283))) (let ((.def_285 (and .def_284 .def_269))) (let ((.def_286 (+ .def_85 .def_49))) (let ((.def_287 (< .def_286 1))) (let ((.def_288 (not .def_287))) (let ((.def_289 (or A4 .def_288))) (let ((.def_290 (+ .def_2 .def_78))) (let ((.def_291 (< .def_290 (- 1)))) (let ((.def_292 (not .def_291))) (let ((.def_293 (= A1 .def_292))) (let ((.def_294 (not .def_293))) (let ((.def_295 (or .def_294 .def_289))) (let ((.def_296 (not .def_295))) (let ((.def_297 (+ .def_69 .def_24))) (let ((.def_298 (< .def_297 (- 1)))) (let ((.def_299 (not .def_298))) (let ((.def_300 (and .def_299 .def_200))) (let ((.def_301 (+ .def_43 .def_182))) (let ((.def_302 (< .def_301 (- 1)))) (let ((.def_303 (not .def_302))) (let ((.def_304 (= .def_303 .def_91))) (let ((.def_305 (not .def_304))) (let ((.def_306 (or .def_305 .def_300))) (let ((.def_307 (and .def_306 .def_296))) (let ((.def_308 (not .def_307))) (let ((.def_309 (< .def_69 1))) (let ((.def_310 (not .def_309))) (let ((.def_311 (or .def_310 .def_37))) (let ((.def_312 (+ .def_279 .def_78))) (let ((.def_313 (< .def_312 (- 1)))) (let ((.def_314 (or .def_313 A4))) (let ((.def_315 (or .def_314 .def_311))) (let ((.def_316 (not .def_315))) (let ((.def_317 (+ .def_69 .def_1))) (let ((.def_318 (< .def_317 1))) (let ((.def_319 (not .def_318))) (let ((.def_320 (= .def_319 .def_219))) (let ((.def_321 (not .def_320))) (let ((.def_322 (< .def_182 (- 1)))) (let ((.def_323 (and .def_322 .def_42))) (let ((.def_324 (not .def_323))) (let ((.def_325 (= .def_324 .def_321))) (let ((.def_326 (not .def_325))) (let ((.def_327 (or .def_326 .def_316))) (let ((.def_328 (or .def_327 .def_308))) (let ((.def_329 (and .def_328 .def_285))) (let ((.def_330 (not .def_329))) (let ((.def_331 (and .def_330 .def_255))) (let ((.def_332 (not .def_331))) (let ((.def_333 (or .def_332 .def_176))) (let ((.def_334 (<= x9 1))) (let ((.def_335 (<= 0 x9))) (let ((.def_336 (<= x8 1))) (let ((.def_337 (<= 0 x8))) (let ((.def_338 (<= x7 1))) (let ((.def_339 (<= 0 x7))) (let ((.def_340 (<= x6 1))) (let ((.def_341 (<= 0 x6))) (let ((.def_342 (<= x5 1))) (let ((.def_343 (<= 0 x5))) (let ((.def_344 (<= x4 1))) (let ((.def_345 (<= 0 x4))) (let ((.def_346 (<= x3 1))) (let ((.def_347 (<= 0 x3))) (let ((.def_348 (<= x2 1))) (let ((.def_349 (<= 0 x2))) (let ((.def_350 (<= x1 1))) (let ((.def_351 (<= 0 x1))) (let ((.def_352 (<= x0 1))) (let ((.def_353 (<= 0 x0))) (let ((.def_354 (and .def_353 .def_352 .def_351 .def_350 .def_349 .def_348 .def_347 .def_346 .def_345 .def_344 .def_343 .def_342 .def_341 .def_340 .def_339 .def_338 .def_337 .def_336 .def_335 .def_334 .def_333))) .def_354))))))))))))))))))))))))))))))))))))))))))))))))))))))))))))))))))))))))))))))))))))))))))))))))))))))))))))))))))))))))))))))))))))))))))))))))))))))))))))))))))))))))))))))))))))))))))))))))))))))))))))))))))))))))))))))))))))))))))))))))))))))))))))))))))))))))))))))))))))))))))))))))))))))))))))))))))))))))))))))))))))))))))))))))))))))))))))))))))))
(check-sat)
